(declare-rel inv2 (Int Int Int Int))
(declare-rel fail ())
(declare-var A Int)
(declare-var B Int)
(declare-var C Int)
(declare-var D Int)
(declare-var E Int)
(declare-var F Int)
(declare-var G Int)
(rule (=> (and (= E 0) (= B 0) (= G 0) (> A 0) (>= 1342342 A)) (inv2 E B G A)))
(rule (let ((a!1 (= F (ite (= (mod E 2) 0) (+ B 1) B)))
      (a!2 (= D (ite (= (mod E 2) 0) G (+ G 1)))))
  (=> (and (inv2 E B G A) (= C (+ E 1)) a!1 a!2) (inv2 C F D A))))
(rule (=> (and (inv2 E B G A) (= E A) (not (= B G))) fail))
(query fail)

